NAME: generated_25_sym_1_50_GaussianDistrib_noSparse.tsp
TYPE: TSP
COMMENT: Test case generated with custom generator!
DIMENSION: 25
EDGE_WEIGHT_TYPE: EXPLICIT
EDGE_WEIGHT_FORMAT: FULL_MATRIX
DISPLAY_DATA_TYPE: TWOD_DISPLAY
EDGE_WEIGHT_SECTION
0 27 25 24 25 26 25 24 24 22 25 25 24 26 24 24 24 23 23 25 24 25 26 24 23 
27 0 24 26 26 26 25 24 25 26 24 24 23 23 24 23 24 26 26 24 24 25 24 26 24 
25 24 0 25 24 24 23 23 23 24 24 24 26 26 23 26 26 24 25 25 25 27 25 24 25 
24 26 25 0 25 24 24 24 25 23 25 25 23 25 26 24 24 25 23 24 23 24 23 27 26 
25 26 24 25 0 25 23 23 24 24 25 26 24 25 24 24 24 25 26 23 27 25 24 24 23 
26 26 24 24 25 0 25 25 26 25 24 26 23 23 24 23 25 25 24 25 25 24 24 25 24 
25 25 23 24 23 25 0 25 23 25 24 23 25 25 26 24 26 24 25 23 25 25 27 24 25 
24 24 23 24 23 25 25 0 23 23 24 25 25 24 25 25 24 26 23 24 25 25 23 25 25 
24 25 23 25 24 26 23 23 0 25 23 24 23 24 25 26 25 24 25 23 24 24 25 25 24 
22 26 24 23 24 25 25 23 25 0 25 24 25 24 24 26 24 25 26 24 22 25 25 25 25 
25 24 24 25 25 24 24 24 23 25 0 23 23 25 25 24 23 24 25 23 23 24 24 26 24 
25 24 24 25 26 26 23 25 24 24 23 0 25 24 25 24 24 25 24 24 24 25 27 23 26 
24 23 26 23 24 23 25 25 23 25 23 25 0 24 24 25 24 23 24 26 25 25 24 24 25 
26 23 26 25 25 23 25 24 24 24 25 24 24 0 24 26 23 25 26 24 24 25 26 23 24 
24 24 23 26 24 24 26 25 25 24 25 25 24 24 0 25 24 22 24 25 24 25 23 22 24 
24 23 26 24 24 23 24 25 26 26 24 24 25 26 25 0 22 24 27 22 25 26 24 25 25 
24 24 26 24 24 25 26 24 25 24 23 24 24 23 24 22 0 24 25 26 23 22 25 25 24 
23 26 24 25 25 25 24 26 24 25 24 25 23 25 22 24 24 0 25 24 25 26 24 25 24 
23 26 25 23 26 24 25 23 25 26 25 24 24 26 24 27 25 25 0 24 26 27 26 25 23 
25 24 25 24 23 25 23 24 23 24 23 24 26 24 25 22 26 24 24 0 25 23 26 24 23 
24 24 25 23 27 25 25 25 24 22 23 24 25 24 24 25 23 25 26 25 0 23 25 24 25 
25 25 27 24 25 24 25 25 24 25 24 25 25 25 25 26 22 26 27 23 23 0 26 24 25 
26 24 25 23 24 24 27 23 25 25 24 27 24 26 23 24 25 24 26 26 25 26 0 25 24 
24 26 24 27 24 25 24 25 25 25 26 23 24 23 22 25 25 25 25 24 24 24 25 0 26 
23 24 25 26 23 24 25 25 24 25 24 26 25 24 24 25 24 24 23 23 25 25 24 26 0 
